  |    0    1    2    3    4    5    6    7    8    9   10   11   12   13   14   15   16]
 0[    0   10   10   10   10   10   10   10   10   10   10   10   10   10   10   10   10]
 1[    0    0    0    0    0    0    2   10   10   10   10   10   10   10   10   10   10]
 2[    0    0    0    0    0    0    2    3    3    3    3    5   10   10   10   10   10]
 3[    0    0    0    0    0    0    0    0    3    3    3    5    6    6    8    9    9]
 4[    0    0    0    0    0    0    0    0    0    3    3    5    6    6    7    7    7]
 5[    0    0    0    0    0    0    0    0    0    3    3    5    5    5    5    7    7]
 6[    0    0    0    0    0    0    0    0    0    3    3    5    5    5    5    7    7]
 7[    0    0    0    0    0    0    0    0    0    3    3    4    5    5    5    7    7]
